
Gurobi 13.0.0 (mac64[arm]) logging started Sun Dec  7 08:30:34 2025

Set parameter LogFile to value "/Users/jjung404/PyProjects/qiga/data/steiner-opt/SP/antiwheel5_log.txt"
Set parameter OutputFlag to value 1
Gurobi Optimizer version 13.0.0 build v13.0.0rc1 (mac64[arm] - Darwin 24.6.0 24G325)

CPU model: Apple M3
Thread count: 8 physical cores, 8 logical processors, using up to 8 threads

Optimize a model with 45 rows, 45 columns and 130 nonzeros (Min)
Model fingerprint: 0x07027c63
Model has 15 linear objective coefficients
Variable types: 30 continuous, 15 integer (15 binary)
Coefficient statistics:
  Matrix range     [1e+00, 4e+00]
  Objective range  [1e+00, 1e+00]
  Bounds range     [1e+00, 1e+00]
  RHS range        [1e+00, 4e+00]
Found heuristic solution: objective 9.0000000
Presolve removed 4 rows and 3 columns
Presolve time: 0.00s
Presolved: 41 rows, 42 columns, 126 nonzeros
Variable types: 27 continuous, 15 integer (15 binary)

Root relaxation: objective 5.000000e+00, 22 iterations, 0.00 seconds (0.00 work units)

    Nodes    |    Current Node    |     Objective Bounds      |     Work
 Expl Unexpl |  Obj  Depth IntInf | Incumbent    BestBd   Gap | It/Node Time

     0     0    5.00000    0   10    9.00000    5.00000  44.4%     -    0s
H    0     0                       8.0000000    5.00000  37.5%     -    0s
     0     0    5.75000    0    8    8.00000    5.75000  28.1%     -    0s
H    0     0                       7.0000000    5.75000  17.9%     -    0s
     0     0    5.75000    0    9    7.00000    5.75000  17.9%     -    0s
     0     0    6.00000    0   14    7.00000    6.00000  14.3%     -    0s
     0     0    6.00000    0   13    7.00000    6.00000  14.3%     -    0s

Cutting planes:
  Cover: 3
  Implied bound: 2
  MIR: 10
  Flow cover: 11
  Flow path: 1
  Network: 5
  RLT: 1

Explored 1 nodes (90 simplex iterations) in 0.01 seconds (0.00 work units)
Thread count was 8 (of 8 available processors)

Solution count 3: 7 8 9 

Optimal solution found (tolerance 1.00e-04)
Best objective 7.000000000000e+00, best bound 7.000000000000e+00, gap 0.0000%
